\ LP format - for model browsing. Use MPS format to capture full model detail.
Minimize
  C0 + C1 + C2 + C3 + C4 + 0.559441864490509 C5 + 0.9254226088523865 C6
   + 0.8266757130622864 C7 + 0.0620872229337692 C8 + 0.1697726547718048 C9
   + 0.049357283860445 C10 + 0.0115262810140848 C11
   + 0.1380941569805145 C12 + 0.7104493975639343 C13
   + 0.7973000407218933 C14 + 0.8381454348564148 C15
   + 0.139854222536087 C16 + 0.9474056959152222 C17
   + 0.7522266507148743 C18 + 0.3327480256557465 C19
   + 0.736786961555481 C20 + 0.188456803560257 C21 + 0.1752836555242538 C22
   + 0.7226834893226624 C23 + 0.4687208235263824 C24
   + 0.3087555766105652 C25 + 0.3202613294124603 C26
   + 0.7176364660263062 C27 + 0.5131763815879822 C28
   + 0.9576192498207092 C29 + 0.2746546864509583 C30
   + 0.8466973304748535 C31 + 0.8701609373092651 C32
   + 0.1184059605002403 C33 + 0.3416539132595062 C34
   + 0.2236286550760269 C35 + 0.9652841687202454 C36
   + 0.9900367856025696 C37 + 0.2525108158588409 C38
   + 0.8307852149009705 C39 + 0.9145784974098206 C40
   + 0.4249638020992279 C41 + 0.8945427536964417 C42
   + 0.6365941762924194 C43 + 0.6381433010101318 C44
   + 0.7233791351318359 C45 + 0.9496528506278992 C46
   + 0.6701200008392334 C47 + 0.2295119911432266 C48
   + 0.822270929813385 C49 + 0.544880747795105 C50 + 0.1595020145177841 C51
   + 0.0802969187498093 C52 + 0.8568042516708374 C53
   + 0.571325421333313 C54
Subject To
 customer0: C5 + C15 + C25 + C35 + C45 = 1
 customer1: C6 + C16 + C26 + C36 + C46 = 1
 customer2: C7 + C17 + C27 + C37 + C47 = 1
 customer3: C8 + C18 + C28 + C38 + C48 = 1
 customer4: C9 + C19 + C29 + C39 + C49 = 1
 customer5: C10 + C20 + C30 + C40 + C50 = 1
 customer6: C11 + C21 + C31 + C41 + C51 = 1
 customer7: C12 + C22 + C32 + C42 + C52 = 1
 customer8: C13 + C23 + C33 + C43 + C53 = 1
 customer9: C14 + C24 + C34 + C44 + C54 = 1
 supply0,0: - C0 + C5 <= 0
 supply0,1: - C0 + C6 <= 0
 supply0,2: - C0 + C7 <= 0
 supply0,3: - C0 + C8 <= 0
 supply0,4: - C0 + C9 <= 0
 supply0,5: - C0 + C10 <= 0
 supply0,6: - C0 + C11 <= 0
 supply0,7: - C0 + C12 <= 0
 supply0,8: - C0 + C13 <= 0
 supply0,9: - C0 + C14 <= 0
 supply1,0: - C1 + C15 <= 0
 supply1,1: - C1 + C16 <= 0
 supply1,2: - C1 + C17 <= 0
 supply1,3: - C1 + C18 <= 0
 supply1,4: - C1 + C19 <= 0
 supply1,5: - C1 + C20 <= 0
 supply1,6: - C1 + C21 <= 0
 supply1,7: - C1 + C22 <= 0
 supply1,8: - C1 + C23 <= 0
 supply1,9: - C1 + C24 <= 0
 supply2,0: - C2 + C25 <= 0
 supply2,1: - C2 + C26 <= 0
 supply2,2: - C2 + C27 <= 0
 supply2,3: - C2 + C28 <= 0
 supply2,4: - C2 + C29 <= 0
 supply2,5: - C2 + C30 <= 0
 supply2,6: - C2 + C31 <= 0
 supply2,7: - C2 + C32 <= 0
 supply2,8: - C2 + C33 <= 0
 supply2,9: - C2 + C34 <= 0
 supply3,0: - C3 + C35 <= 0
 supply3,1: - C3 + C36 <= 0
 supply3,2: - C3 + C37 <= 0
 supply3,3: - C3 + C38 <= 0
 supply3,4: - C3 + C39 <= 0
 supply3,5: - C3 + C40 <= 0
 supply3,6: - C3 + C41 <= 0
 supply3,7: - C3 + C42 <= 0
 supply3,8: - C3 + C43 <= 0
 supply3,9: - C3 + C44 <= 0
 supply4,0: - C4 + C45 <= 0
 supply4,1: - C4 + C46 <= 0
 supply4,2: - C4 + C47 <= 0
 supply4,3: - C4 + C48 <= 0
 supply4,4: - C4 + C49 <= 0
 supply4,5: - C4 + C50 <= 0
 supply4,6: - C4 + C51 <= 0
 supply4,7: - C4 + C52 <= 0
 supply4,8: - C4 + C53 <= 0
 supply4,9: - C4 + C54 <= 0
Bounds
 C0 <= 1
 C1 <= 1
 C2 <= 1
 C3 <= 1
 C4 <= 1
 C5 <= 1
 C6 <= 1
 C7 <= 1
 C8 <= 1
 C9 <= 1
 C10 <= 1
 C11 <= 1
 C12 <= 1
 C13 <= 1
 C14 <= 1
 C15 <= 1
 C16 <= 1
 C17 <= 1
 C18 <= 1
 C19 <= 1
 C20 <= 1
 C21 <= 1
 C22 <= 1
 C23 <= 1
 C24 <= 1
 C25 <= 1
 C26 <= 1
 C27 <= 1
 C28 <= 1
 C29 <= 1
 C30 <= 1
 C31 <= 1
 C32 <= 1
 C33 <= 1
 C34 <= 1
 C35 <= 1
 C36 <= 1
 C37 <= 1
 C38 <= 1
 C39 <= 1
 C40 <= 1
 C41 <= 1
 C42 <= 1
 C43 <= 1
 C44 <= 1
 C45 <= 1
 C46 <= 1
 C47 <= 1
 C48 <= 1
 C49 <= 1
 C50 <= 1
 C51 <= 1
 C52 <= 1
 C53 <= 1
 C54 <= 1
End
